JOBS = 1..3;
MACHINES = 1..3;
SPEED = 3;
time = array3d(JOBS,MACHINES,1..SPEED,[39,9,7,102,25,18,63,15,11,243,59,43,258,63,46,252,61,45,179,43,32,145,35,26,137,33,24]);
energy = array3d(JOBS,MACHINES,1..SPEED,[67,91,93,36,77,83,53,86,89,8,55,65,7,53,63,8,54,63,16,65,72,23,70,77,25,71,78]);
precedence = array2d(JOBS,MACHINES,[1,2,0,1,2,0,1,0,2]);
ME = 1;
TE = 112;
st_old = array2d(JOBS,MACHINES,[11,50,0,82,152,11,50,0,82]);
SpeedScaling = array2d(JOBS,MACHINES,[1,1,3,2,2,2,3,2,1]);
